3
20
5363
[[ 24,329,438,453, 35,746,874,351,433,126,622,530,337,945,110,760,178, 67, 57,752],
 [845,104, 89,944,385,541,609,199,118, 63,411,730, 74,769,195,141,538,580,177,905],
 [663,996,648,513,996,720,538,573, 57,419, 64,623,243,438,302,268,703,300,896,639]]
[106,173,896,272,255,563,766,967,996,110,908,182,941,627,571, 79,832,324,232,927]